
Gurobi 6.0.0 (linux64) logging started Mon Apr 13 21:16:17 2015

Optimize a model with 8 rows, 1007 columns and 8007 nonzeros
Model has 7 quadratic objective terms
Coefficient statistics:
  Matrix range    [1e-07, 1e+00]
  Objective range [3e-18, 6e+00]
  Bounds range    [1e+04, 1e+04]
  RHS range       [1e+00, 1e+00]
Presolve time: 0.00s
Presolved: 8 rows, 1007 columns, 8007 nonzeros
Presolved model has 7 quadratic objective terms
Ordering time: 0.00s

Barrier statistics:
 AA' NZ     : 2.800e+01
 Factor NZ  : 3.600e+01
 Factor Ops : 2.040e+02 (less than 1 second per iteration)
 Threads    : 1

                  Objective                Residual
Iter       Primal          Dual         Primal    Dual     Compl     Time
   0   1.52274969e+06 -1.64917976e+09  1.05e+06 6.22e+00  2.67e+06     0s
   1  -2.45938301e+02 -1.79890492e+06  1.07e+03 0.00e+00  2.83e+03     0s
   2  -2.41451263e-01 -2.94783858e+03  9.02e-02 1.46e-11  3.00e+00     0s
   3  -2.21523285e-01 -9.10845947e+00  3.27e-05 7.28e-12  8.76e-03     0s
   4  -1.25470734e+00 -6.74847031e+00  3.27e-11 1.46e-11  5.42e-03     0s
   5  -4.89936447e+00 -6.64772797e+00  7.28e-12 7.28e-12  1.72e-03     0s
   6  -5.48506165e+00 -5.84192657e+00  7.28e-12 7.28e-12  3.52e-04     0s
   7  -5.75614166e+00 -5.78137207e+00  7.28e-12 1.46e-11  2.49e-05     0s
   8  -5.77766418e+00 -5.77770615e+00  3.64e-12 1.46e-11  3.43e-08     0s
   9  -5.77769089e+00 -5.77768326e+00  1.27e-14 7.28e-12  3.44e-11     0s

Barrier solved model in 9 iterations and 0.01 seconds
Optimal objective -5.77769089e+00


Gurobi 6.0.0 (linux64) logging started Mon Apr 13 21:17:21 2015

Optimize a model with 8 rows, 1007 columns and 8007 nonzeros
Model has 7 quadratic objective terms
Coefficient statistics:
  Matrix range    [1e-07, 1e+00]
  Objective range [3e-18, 6e+00]
  Bounds range    [1e+04, 1e+04]
  RHS range       [1e+00, 1e+00]
Presolve time: 0.01s
Presolved: 8 rows, 1007 columns, 8007 nonzeros
Presolved model has 7 quadratic objective terms
Ordering time: 0.00s

Barrier statistics:
 AA' NZ     : 2.800e+01
 Factor NZ  : 3.600e+01
 Factor Ops : 2.040e+02 (less than 1 second per iteration)
 Threads    : 1

                  Objective                Residual
Iter       Primal          Dual         Primal    Dual     Compl     Time
   0   1.52274969e+06 -1.64917976e+09  1.05e+06 6.22e+00  2.67e+06     0s
   1  -2.45938301e+02 -1.79890492e+06  1.07e+03 0.00e+00  2.83e+03     0s
   2  -2.41451263e-01 -2.94783858e+03  9.02e-02 1.46e-11  3.00e+00     0s
   3  -2.21523285e-01 -9.10845947e+00  3.27e-05 7.28e-12  8.76e-03     0s
   4  -1.25470734e+00 -6.74847031e+00  3.27e-11 1.46e-11  5.42e-03     0s
   5  -4.89936447e+00 -6.64772797e+00  7.28e-12 7.28e-12  1.72e-03     0s
   6  -5.48506165e+00 -5.84192657e+00  7.28e-12 7.28e-12  3.52e-04     0s
   7  -5.75614166e+00 -5.78137207e+00  7.28e-12 1.46e-11  2.49e-05     0s
   8  -5.77766418e+00 -5.77770615e+00  3.64e-12 1.46e-11  3.43e-08     0s
   9  -5.77769089e+00 -5.77768326e+00  1.27e-14 7.28e-12  3.44e-11     0s

Barrier solved model in 9 iterations and 0.03 seconds
Optimal objective -5.77769089e+00


Gurobi 6.0.0 (linux64) logging started Mon Apr 13 21:18:41 2015

Optimize a model with 8 rows, 1007 columns and 8007 nonzeros
Model has 7 quadratic objective terms
Coefficient statistics:
  Matrix range    [1e-07, 1e+00]
  Objective range [3e-18, 6e+00]
  Bounds range    [1e+04, 1e+04]
  RHS range       [1e+00, 1e+00]
Presolve time: 0.00s
Presolved: 8 rows, 1007 columns, 8007 nonzeros
Presolved model has 7 quadratic objective terms
Ordering time: 0.00s

Barrier statistics:
 AA' NZ     : 2.800e+01
 Factor NZ  : 3.600e+01
 Factor Ops : 2.040e+02 (less than 1 second per iteration)
 Threads    : 1

                  Objective                Residual
Iter       Primal          Dual         Primal    Dual     Compl     Time
   0   1.52274969e+06 -1.64917976e+09  1.05e+06 6.22e+00  2.67e+06     0s
   1  -2.45938301e+02 -1.79890492e+06  1.07e+03 0.00e+00  2.83e+03     0s
   2  -2.41451263e-01 -2.94783858e+03  9.02e-02 1.46e-11  3.00e+00     0s
   3  -2.21523285e-01 -9.10845947e+00  3.27e-05 7.28e-12  8.76e-03     0s
   4  -1.25470734e+00 -6.74847031e+00  3.27e-11 1.46e-11  5.42e-03     0s
   5  -4.89936447e+00 -6.64772797e+00  7.28e-12 7.28e-12  1.72e-03     0s
   6  -5.48506165e+00 -5.84192657e+00  7.28e-12 7.28e-12  3.52e-04     0s
   7  -5.75614166e+00 -5.78137207e+00  7.28e-12 1.46e-11  2.49e-05     0s
   8  -5.77766418e+00 -5.77770615e+00  3.64e-12 1.46e-11  3.43e-08     0s
   9  -5.77769089e+00 -5.77768326e+00  1.27e-14 7.28e-12  3.44e-11     0s

Barrier solved model in 9 iterations and 0.02 seconds
Optimal objective -5.77769089e+00


Gurobi 6.0.0 (linux64) logging started Mon Apr 13 21:19:15 2015

Optimize a model with 8 rows, 1007 columns and 8007 nonzeros
Model has 7 quadratic objective terms
Coefficient statistics:
  Matrix range    [1e-07, 1e+00]
  Objective range [3e-18, 6e+00]
  Bounds range    [1e+04, 1e+04]
  RHS range       [1e+00, 1e+00]
Presolve time: 0.01s
Presolved: 8 rows, 1007 columns, 8007 nonzeros
Presolved model has 7 quadratic objective terms
Ordering time: 0.00s

Barrier statistics:
 AA' NZ     : 2.800e+01
 Factor NZ  : 3.600e+01
 Factor Ops : 2.040e+02 (less than 1 second per iteration)
 Threads    : 1

                  Objective                Residual
Iter       Primal          Dual         Primal    Dual     Compl     Time
   0   1.52274969e+06 -1.64917976e+09  1.05e+06 6.22e+00  2.67e+06     0s
   1  -2.45938301e+02 -1.79890492e+06  1.07e+03 0.00e+00  2.83e+03     0s
   2  -2.41451263e-01 -2.94783858e+03  9.02e-02 1.46e-11  3.00e+00     0s
   3  -2.21523285e-01 -9.10845947e+00  3.27e-05 7.28e-12  8.76e-03     0s
   4  -1.25470734e+00 -6.74847031e+00  3.27e-11 1.46e-11  5.42e-03     0s
   5  -4.89936447e+00 -6.64772797e+00  7.28e-12 7.28e-12  1.72e-03     0s
   6  -5.48506165e+00 -5.84192657e+00  7.28e-12 7.28e-12  3.52e-04     0s
   7  -5.75614166e+00 -5.78137207e+00  7.28e-12 1.46e-11  2.49e-05     0s
   8  -5.77766418e+00 -5.77770615e+00  3.64e-12 1.46e-11  3.43e-08     0s
   9  -5.77769089e+00 -5.77768326e+00  1.27e-14 7.28e-12  3.44e-11     0s

Barrier solved model in 9 iterations and 0.02 seconds
Optimal objective -5.77769089e+00


Gurobi 6.0.0 (linux64) logging started Mon Apr 13 21:19:46 2015

Optimize a model with 8 rows, 1007 columns and 8007 nonzeros
Model has 7 quadratic objective terms
Coefficient statistics:
  Matrix range    [1e-07, 1e+00]
  Objective range [3e-18, 6e+00]
  Bounds range    [1e+04, 1e+04]
  RHS range       [1e+00, 1e+00]
Presolve time: 0.01s
Presolved: 8 rows, 1007 columns, 8007 nonzeros
Presolved model has 7 quadratic objective terms
Ordering time: 0.00s

Barrier statistics:
 AA' NZ     : 2.800e+01
 Factor NZ  : 3.600e+01
 Factor Ops : 2.040e+02 (less than 1 second per iteration)
 Threads    : 1

                  Objective                Residual
Iter       Primal          Dual         Primal    Dual     Compl     Time
   0   1.52274969e+06 -1.64917976e+09  1.05e+06 6.22e+00  2.67e+06     0s
   1  -2.45938301e+02 -1.79890492e+06  1.07e+03 0.00e+00  2.83e+03     0s
   2  -2.41451263e-01 -2.94783858e+03  9.02e-02 1.46e-11  3.00e+00     0s
   3  -2.21523285e-01 -9.10845947e+00  3.27e-05 7.28e-12  8.76e-03     0s
   4  -1.25470734e+00 -6.74847031e+00  3.27e-11 1.46e-11  5.42e-03     0s
   5  -4.89936447e+00 -6.64772797e+00  7.28e-12 7.28e-12  1.72e-03     0s
   6  -5.48506165e+00 -5.84192657e+00  7.28e-12 7.28e-12  3.52e-04     0s
   7  -5.75614166e+00 -5.78137207e+00  7.28e-12 1.46e-11  2.49e-05     0s
   8  -5.77766418e+00 -5.77770615e+00  3.64e-12 1.46e-11  3.43e-08     0s
   9  -5.77769089e+00 -5.77768326e+00  1.27e-14 7.28e-12  3.44e-11     0s

Barrier solved model in 9 iterations and 0.01 seconds
Optimal objective -5.77769089e+00


Gurobi 6.0.0 (linux64) logging started Mon Apr 13 21:33:50 2015


Gurobi 6.0.0 (linux64) logging started Mon Apr 13 21:35:44 2015

